;; sequence(s): A52717
;; terms: 0 0 2 6 48 600 10080 211680 5322240 155675520 5189184000 194075481600 8045310873600 366061644748800 18134130709094400 971471287987200000 55956746188062720000 3448334483839365120000
;; small program: (loop(2 * ((2 * (x * y)) - x), x - 2, x) div 2) * 2
;; fast program: loop2(x * y, 1 + y, (x - 1) - 2, 1, x) * ((x * x) - x)
(set-logic UFNIA)
(define-fun divf ((a Int) (b Int)) Int (ite (< 0 b) (div a b) (div (- a) (- b))))
(declare-fun f0 (Int Int) Int)
(declare-fun g0 (Int) Int)
(declare-fun h0 (Int) Int)
(declare-fun u0 (Int Int) Int)
(declare-fun v0 (Int) Int)
(declare-fun small (Int) Int)
(declare-fun f1 (Int Int) Int)
(declare-fun g1 (Int Int) Int)
(declare-fun h1 (Int) Int)
(declare-fun i1 () Int)
(declare-fun j1 (Int) Int)
(declare-fun u1 (Int Int Int) Int)
(declare-fun v1 (Int Int Int) Int)
(declare-fun w1 (Int) Int)
(declare-fun fast (Int) Int)
(assert (forall ((x Int) (y Int)) (= (f0 x y) (* 2 (- (* 2 (* x y)) x)))))
(assert (forall ((x Int)) (= (g0 x) (- x 2))))
(assert (forall ((x Int)) (= (h0 x) x)))
(assert (forall ((x Int) (y Int)) (= (u0 x y) (ite (<= x 0) y (f0 (u0 (- x 1) y) x)))))
(assert (forall ((x Int)) (= (v0 x) (u0 (g0 x) (h0 x)))))
(assert (forall ((x Int)) (= (small x) (* (divf (v0 x) 2) 2))))
(assert (forall ((x Int) (y Int)) (= (f1 x y) (* x y))))
(assert (forall ((x Int) (y Int)) (= (g1 x y) (+ 1 y))))
(assert (forall ((x Int)) (= (h1 x) (- (- x 1) 2))))
(assert (= i1 1))
(assert (forall ((x Int)) (= (j1 x) x)))
(assert (forall ((x Int) (y Int) (z Int)) (= (u1 x y z) (ite (<= x 0) y (f1 (u1 (- x 1) y z) (v1 (- x 1) y z))))))
(assert (forall ((x Int) (y Int) (z Int)) (= (v1 x y z) (ite (<= x 0) z (g1 (u1 (- x 1) y z) (v1 (- x 1) y z))))))
(assert (forall ((x Int)) (= (w1 x) (u1 (h1 x) i1 (j1 x)))))
(assert (forall ((x Int)) (= (fast x) (* (w1 x) (- (* x x) x)))))
(assert (exists ((c Int)) (and (>= c 0) (not (= (small c) (fast c))))))
(check-sat)
